NAME : 10_3_3_2_(29).dat
COMMENT : Henke, Speranza, Wäscher, 2015
TYPE : MCVRP
DIMENSION : 11
EDGE_WEIGHT_TYPE : DISTANCE_MATRIX
CAPACITY : 1000
VEHICLES : 2
PRODUCT TYPES : 3
COMPARTMENTS : 3
NODE_COORD_SECTION
1 50 50
2 88.82 7.69
3 48.36 19.75
4 1.19 35.8
5 4.61 20.29
6 29.38 24.09
7 77.35 25.24
8 79.81 40.14
9 17.89 45.72
10 54.19 74.19
11 3.84 98.12
DEMAND_SECTION
1 0 0 0
2 113 0 71
3 90 0 10
4 18 81 0
5 71 35 0
6 94 0 28
7 79 0 113
8 50 17 0
9 83 45 0
10 0 120 57
11 102 122 0
DEPOT_SECTION
1
EOF